67
1 0 21
2 0 44
2 1 2
3 0 20
3 1 15
3 2 29
4 0 27
4 1 34
4 2 43
4 3 25
5 0 43
5 1 32
5 2 19
5 3 38
5 4 8
6 0 33
6 1 9
6 2 34
6 3 47
6 4 26
6 5 43
7 0 30
7 1 32
7 2 21
7 3 10
7 4 15
7 5 11
7 6 27
8 0 12
8 1 41
8 2 23
8 3 40
8 4 7
8 5 22
8 6 15
8 7 18
9 0 25
9 1 39
9 2 16
9 3 27
9 4 48
9 5 21
9 6 7
9 7 7
9 8 33
10 0 26
10 1 27
10 2 12
10 3 27
10 4 15
10 5 27
10 6 1
10 7 41
10 8 24
10 9 25
11 0 2
11 1 14
11 2 34
11 3 12
11 4 18
11 5 18
11 6 44
11 7 37
11 8 6
11 9 18
11 10 4
12 0 40
12 1 22
12 2 26
12 3 40
12 4 28
12 5 49
12 6 35
12 7 19
12 8 8
12 9 30
12 10 22
12 11 36
13 0 42
13 1 24
13 2 11
13 3 8
13 4 45
13 5 2
13 6 20
13 7 45
13 8 33
13 9 25
13 10 48
13 11 40
13 12 13
14 0 45
14 1 17
14 2 17
14 3 2
14 4 35
14 5 29
14 6 31
14 7 35
14 8 14
14 9 47
14 10 16
14 11 18
14 12 32
14 13 30
15 0 43
15 1 23
15 2 14
15 3 40
15 4 32
15 5 9
15 6 7
15 7 4
15 8 27
15 9 27
15 10 42
15 11 3
15 12 28
15 13 22
15 14 42
16 0 49
16 1 9
16 2 25
16 3 14
16 4 13
16 5 15
16 6 14
16 7 8
16 8 7
16 9 27
16 10 6
16 11 37
16 12 41
16 13 7
16 14 4
16 15 19
17 0 32
17 1 8
17 2 17
17 3 48
17 4 20
17 5 18
17 6 11
17 7 9
17 8 47
17 9 37
17 10 26
17 11 43
17 12 48
17 13 30
17 14 5
17 15 13
17 16 32
18 0 29
18 1 38
18 2 4
18 3 48
18 4 1
18 5 37
18 6 15
18 7 25
18 8 37
18 9 25
18 10 36
18 11 3
18 12 1
18 13 35
18 14 12
18 15 25
18 16 12
18 17 19
19 0 8
19 1 42
19 2 31
19 3 33
19 4 37
19 5 4
19 6 1
19 7 3
19 8 24
19 9 19
19 10 29
19 11 12
19 12 6
19 13 8
19 14 47
19 15 35
19 16 22
19 17 22
19 18 48
20 0 21
20 1 4
20 2 37
20 3 26
20 4 7
20 5 6
20 6 39
20 7 28
20 8 17
20 9 17
20 10 7
20 11 35
20 12 34
20 13 31
20 14 7
20 15 40
20 16 34
20 17 4
20 18 22
20 19 23
21 0 40
21 1 2
21 2 48
21 3 22
21 4 14
21 5 39
21 6 10
21 7 13
21 8 15
21 9 48
21 10 12
21 11 33
21 12 22
21 13 21
21 14 47
21 15 23
21 16 22
21 17 33
21 18 42
21 19 12
21 20 27
22 0 41
22 1 1
22 2 34
22 3 24
22 4 32
22 5 49
22 6 40
22 7 11
22 8 15
22 9 16
22 10 44
22 11 15
22 12 33
22 13 15
22 14 15
22 15 38
22 16 31
22 17 10
22 18 25
22 19 15
22 20 24
22 21 44
23 0 28
23 1 23
23 2 13
23 3 27
23 4 19
23 5 19
23 6 46
23 7 7
23 8 5
23 9 37
23 10 37
23 11 31
23 12 37
23 13 18
23 14 34
23 15 17
23 16 44
23 17 22
23 18 25
23 19 23
23 20 39
23 21 18
23 22 16
24 0 11
24 1 22
24 2 43
24 3 42
24 4 42
24 5 26
24 6 26
24 7 5
24 8 16
24 9 2
24 10 3
24 11 13
24 12 41
24 13 9
24 14 47
24 15 9
24 16 2
24 17 43
24 18 34
24 19 45
24 20 46
24 21 36
24 22 39
24 23 21
25 0 33
25 1 34
25 2 9
25 3 25
25 4 37
25 5 11
25 6 24
25 7 26
25 8 13
25 9 12
25 10 37
25 11 20
25 12 20
25 13 48
25 14 21
25 15 48
25 16 11
25 17 8
25 18 7
25 19 44
25 20 14
25 21 37
25 22 28
25 23 11
25 24 40
26 0 36
26 1 37
26 2 45
26 3 30
26 4 40
26 5 22
26 6 27
26 7 25
26 8 1
26 9 17
26 10 43
26 11 19
26 12 33
26 13 13
26 14 21
26 15 1
26 16 47
26 17 45
26 18 45
26 19 6
26 20 9
26 21 15
26 22 20
26 23 24
26 24 37
26 25 19
27 0 12
27 1 48
27 2 47
27 3 18
27 4 21
27 5 3
27 6 16
27 7 24
27 8 44
27 9 30
27 10 10
27 11 35
27 12 39
27 13 35
27 14 44
27 15 11
27 16 35
27 17 21
27 18 3
27 19 42
27 20 28
27 21 31
27 22 36
27 23 35
27 24 30
27 25 36
27 26 4
28 0 43
28 1 25
28 2 29
28 3 10
28 4 31
28 5 47
28 6 3
28 7 22
28 8 37
28 9 27
28 10 49
28 11 26
28 12 44
28 13 29
28 14 25
28 15 14
28 16 47
28 17 38
28 18 48
28 19 14
28 20 1
28 21 33
28 22 9
28 23 26
28 24 11
28 25 44
28 26 4
28 27 26
29 0 36
29 1 6
29 2 36
29 3 5
29 4 30
29 5 17
29 6 1
29 7 18
29 8 14
29 9 6
29 10 4
29 11 30
29 12 35
29 13 35
29 14 1
29 15 25
29 16 46
29 17 6
29 18 43
29 19 14
29 20 3
29 21 44
29 22 10
29 23 10
29 24 8
29 25 38
29 26 27
29 27 20
29 28 34
30 0 31
30 1 35
30 2 44
30 3 6
30 4 27
30 5 45
30 6 4
30 7 7
30 8 32
30 9 34
30 10 25
30 11 33
30 12 11
30 13 20
30 14 24
30 15 14
30 16 9
30 17 48
30 18 26
30 19 42
30 20 47
30 21 38
30 22 19
30 23 38
30 24 12
30 25 44
30 26 21
30 27 39
30 28 19
30 29 24
31 0 9
31 1 18
31 2 8
31 3 28
31 4 1
31 5 3
31 6 13
31 7 34
31 8 10
31 9 32
31 10 42
31 11 16
31 12 12
31 13 26
31 14 48
31 15 34
31 16 32
31 17 43
31 18 22
31 19 35
31 20 44
31 21 30
31 22 41
31 23 4
31 24 23
31 25 5
31 26 28
31 27 29
31 28 27
31 29 5
31 30 5
32 0 20
32 1 12
32 2 18
32 3 47
32 4 39
32 5 27
32 6 10
32 7 39
32 8 24
32 9 43
32 10 16
32 11 47
32 12 41
32 13 18
32 14 19
32 15 14
32 16 9
32 17 5
32 18 38
32 19 48
32 20 16
32 21 42
32 22 18
32 23 30
32 24 45
32 25 8
32 26 36
32 27 3
32 28 12
32 29 39
32 30 36
32 31 30
33 0 28
33 1 47
33 2 22
33 3 25
33 4 4
33 5 26
33 6 47
33 7 40
33 8 12
33 9 28
33 10 35
33 11 19
33 12 41
33 13 37
33 14 45
33 15 7
33 16 12
33 17 12
33 18 23
33 19 9
33 20 32
33 21 22
33 22 35
33 23 10
33 24 3
33 25 30
33 26 23
33 27 18
33 28 30
33 29 49
33 30 15
33 31 33
33 32 23
34 0 23
34 1 11
34 2 7
34 3 3
34 4 16
34 5 3
34 6 1
34 7 34
34 8 43
34 9 10
34 10 47
34 11 44
34 12 19
34 13 20
34 14 26
34 15 33
34 16 36
34 17 6
34 18 18
34 19 35
34 20 28
34 21 14
34 22 27
34 23 19
34 24 24
34 25 28
34 26 25
34 27 38
34 28 22
34 29 31
34 30 46
34 31 15
34 32 31
34 33 35
35 0 3
35 1 33
35 2 23
35 3 42
35 4 48
35 5 43
35 6 15
35 7 16
35 8 40
35 9 3
35 10 5
35 11 8
35 12 15
35 13 5
35 14 18
35 15 45
35 16 27
35 17 1
35 18 32
35 19 1
35 20 19
35 21 9
35 22 42
35 23 11
35 24 32
35 25 17
35 26 38
35 27 15
35 28 48
35 29 16
35 30 47
35 31 32
35 32 6
35 33 31
35 34 32
36 0 35
36 1 5
36 2 25
36 3 8
36 4 12
36 5 11
36 6 13
36 7 30
36 8 42
36 9 7
36 10 24
36 11 1
36 12 26
36 13 21
36 14 4
36 15 39
36 16 29
36 17 13
36 18 32
36 19 4
36 20 45
36 21 8
36 22 5
36 23 49
36 24 47
36 25 2
36 26 12
36 27 22
36 28 47
36 29 41
36 30 40
36 31 25
36 32 24
36 33 27
36 34 19
36 35 29
37 0 5
37 1 29
37 2 30
37 3 19
37 4 49
37 5 20
37 6 22
37 7 29
37 8 22
37 9 14
37 10 34
37 11 26
37 12 43
37 13 19
37 14 14
37 15 35
37 16 42
37 17 22
37 18 8
37 19 12
37 20 41
37 21 5
37 22 33
37 23 28
37 24 5
37 25 11
37 26 31
37 27 33
37 28 44
37 29 5
37 30 36
37 31 17
37 32 26
37 33 13
37 34 47
37 35 24
37 36 15
38 0 5
38 1 34
38 2 41
38 3 23
38 4 43
38 5 25
38 6 35
38 7 16
38 8 29
38 9 11
38 10 24
38 11 16
38 12 42
38 13 31
38 14 39
38 15 48
38 16 32
38 17 24
38 18 5
38 19 26
38 20 36
38 21 23
38 22 27
38 23 47
38 24 4
38 25 37
38 26 37
38 27 44
38 28 28
38 29 6
38 30 29
38 31 6
38 32 35
38 33 19
38 34 15
38 35 2
38 36 15
38 37 13
39 0 28
39 1 15
39 2 9
39 3 36
39 4 3
39 5 10
39 6 29
39 7 38
39 8 45
39 9 42
39 10 33
39 11 16
39 12 3
39 13 3
39 14 6
39 15 3
39 16 17
39 17 16
39 18 12
39 19 43
39 20 30
39 21 41
39 22 29
39 23 25
39 24 40
39 25 39
39 26 10
39 27 32
39 28 12
39 29 35
39 30 49
39 31 16
39 32 23
39 33 31
39 34 42
39 35 28
39 36 4
39 37 13
39 38 30
40 0 29
40 1 39
40 2 31
40 3 25
40 4 42
40 5 34
40 6 14
40 7 22
40 8 48
40 9 40
40 10 37
40 11 36
40 12 14
40 13 6
40 14 31
40 15 8
40 16 16
40 17 32
40 18 9
40 19 39
40 20 42
40 21 25
40 22 24
40 23 27
40 24 48
40 25 43
40 26 42
40 27 33
40 28 20
40 29 1
40 30 30
40 31 29
40 32 9
40 33 22
40 34 29
40 35 42
40 36 14
40 37 11
40 38 49
40 39 42
41 0 45
41 1 18
41 2 24
41 3 46
41 4 11
41 5 36
41 6 30
41 7 35
41 8 4
41 9 41
41 10 43
41 11 2
41 12 8
41 13 24
41 14 14
41 15 34
41 16 48
41 17 12
41 18 37
41 19 40
41 20 10
41 21 4
41 22 6
41 23 36
41 24 3
41 25 29
41 26 29
41 27 24
41 28 36
41 29 43
41 30 30
41 31 30
41 32 9
41 33 38
41 34 32
41 35 19
41 36 24
41 37 8
41 38 24
41 39 12
41 40 49
42 0 16
42 1 40
42 2 26
42 3 36
42 4 48
42 5 17
42 6 7
42 7 40
42 8 48
42 9 34
42 10 32
42 11 32
42 12 6
42 13 38
42 14 36
42 15 35
42 16 30
42 17 21
42 18 18
42 19 32
42 20 36
42 21 25
42 22 42
42 23 5
42 24 11
42 25 35
42 26 37
42 27 38
42 28 6
42 29 45
42 30 7
42 31 17
42 32 8
42 33 26
42 34 49
42 35 19
42 36 4
42 37 27
42 38 26
42 39 9
42 40 12
42 41 2
43 0 29
43 1 29
43 2 26
43 3 8
43 4 35
43 5 43
43 6 21
43 7 13
43 8 21
43 9 9
43 10 34
43 11 23
43 12 33
43 13 17
43 14 8
43 15 40
43 16 30
43 17 7
43 18 20
43 19 36
43 20 8
43 21 48
43 22 17
43 23 32
43 24 4
43 25 37
43 26 8
43 27 48
43 28 15
43 29 20
43 30 48
43 31 30
43 32 44
43 33 18
43 34 9
43 35 39
43 36 2
43 37 2
43 38 19
43 39 49
43 40 25
43 41 31
43 42 14
44 0 7
44 1 43
44 2 22
44 3 9
44 4 12
44 5 23
44 6 16
44 7 34
44 8 25
44 9 16
44 10 29
44 11 39
44 12 12
44 13 14
44 14 42
44 15 34
44 16 7
44 17 31
44 18 39
44 19 34
44 20 48
44 21 38
44 22 14
44 23 15
44 24 28
44 25 16
44 26 37
44 27 9
44 28 37
44 29 13
44 30 41
44 31 33
44 32 16
44 33 48
44 34 7
44 35 49
44 36 38
44 37 29
44 38 14
44 39 23
44 40 41
44 41 38
44 42 10
44 43 13
45 0 13
45 1 45
45 2 23
45 3 11
45 4 25
45 5 17
45 6 4
45 7 24
45 8 47
45 9 4
45 10 46
45 11 19
45 12 10
45 13 13
45 14 6
45 15 41
45 16 9
45 17 4
45 18 29
45 19 23
45 20 25
45 21 3
45 22 38
45 23 13
45 24 6
45 25 49
45 26 21
45 27 49
45 28 40
45 29 37
45 30 30
45 31 8
45 32 47
45 33 44
45 34 25
45 35 11
45 36 45
45 37 37
45 38 42
45 39 42
45 40 3
45 41 18
45 42 36
45 43 6
45 44 25
46 0 28
46 1 9
46 2 22
46 3 45
46 4 48
46 5 1
46 6 38
46 7 10
46 8 35
46 9 36
46 10 27
46 11 16
46 12 13
46 13 10
46 14 4
46 15 20
46 16 22
46 17 33
46 18 28
46 19 11
46 20 39
46 21 21
46 22 2
46 23 44
46 24 35
46 25 45
46 26 32
46 27 36
46 28 38
46 29 11
46 30 12
46 31 46
46 32 44
46 33 13
46 34 11
46 35 2
46 36 24
46 37 1
46 38 45
46 39 15
46 40 45
46 41 40
46 42 12
46 43 11
46 44 23
46 45 18
47 0 7
47 1 44
47 2 44
47 3 40
47 4 3
47 5 4
47 6 31
47 7 32
47 8 38
47 9 6
47 10 15
47 11 33
47 12 48
47 13 47
47 14 42
47 15 25
47 16 26
47 17 46
47 18 35
47 19 23
47 20 17
47 21 17
47 22 29
47 23 32
47 24 23
47 25 31
47 26 47
47 27 35
47 28 19
47 29 35
47 30 8
47 31 22
47 32 48
47 33 11
47 34 48
47 35 20
47 36 32
47 37 2
47 38 41
47 39 47
47 40 10
47 41 41
47 42 47
47 43 30
47 44 6
47 45 24
47 46 26
48 0 31
48 1 29
48 2 17
48 3 9
48 4 2
48 5 44
48 6 44
48 7 31
48 8 26
48 9 6
48 10 9
48 11 15
48 12 13
48 13 34
48 14 16
48 15 9
48 16 9
48 17 40
48 18 24
48 19 10
48 20 9
48 21 33
48 22 26
48 23 5
48 24 46
48 25 33
48 26 11
48 27 11
48 28 33
48 29 18
48 30 20
48 31 2
48 32 4
48 33 43
48 34 40
48 35 10
48 36 37
48 37 36
48 38 15
48 39 10
48 40 14
48 41 30
48 42 34
48 43 30
48 44 4
48 45 16
48 46 24
48 47 29
49 0 41
49 1 3
49 2 12
49 3 35
49 4 28
49 5 37
49 6 12
49 7 18
49 8 16
49 9 1
49 10 41
49 11 37
49 12 30
49 13 2
49 14 20
49 15 39
49 16 3
49 17 28
49 18 10
49 19 5
49 20 18
49 21 21
49 22 13
49 23 2
49 24 43
49 25 30
49 26 44
49 27 23
49 28 37
49 29 46
49 30 1
49 31 29
49 32 33
49 33 16
49 34 48
49 35 6
49 36 11
49 37 31
49 38 32
49 39 33
49 40 22
49 41 21
49 42 48
49 43 8
49 44 23
49 45 16
49 46 13
49 47 13
49 48 49
50 0 20
50 1 49
50 2 37
50 3 49
50 4 5
50 5 41
50 6 46
50 7 5
50 8 29
50 9 1
50 10 23
50 11 17
50 12 23
50 13 25
50 14 21
50 15 19
50 16 14
50 17 26
50 18 22
50 19 16
50 20 4
50 21 16
50 22 5
50 23 31
50 24 22
50 25 8
50 26 45
50 27 49
50 28 7
50 29 11
50 30 47
50 31 44
50 32 34
50 33 34
50 34 17
50 35 26
50 36 22
50 37 45
50 38 35
50 39 46
50 40 41
50 41 9
50 42 48
50 43 40
50 44 6
50 45 37
50 46 16
50 47 20
50 48 27
50 49 22
51 0 2
51 1 2
51 2 44
51 3 16
51 4 29
51 5 30
51 6 37
51 7 21
51 8 15
51 9 46
51 10 8
51 11 22
51 12 11
51 13 39
51 14 7
51 15 10
51 16 17
51 17 49
51 18 26
51 19 33
51 20 48
51 21 46
51 22 10
51 23 38
51 24 9
51 25 19
51 26 9
51 27 3
51 28 16
51 29 21
51 30 32
51 31 19
51 32 24
51 33 46
51 34 33
51 35 34
51 36 49
51 37 45
51 38 10
51 39 43
51 40 15
51 41 29
51 42 30
51 43 16
51 44 15
51 45 3
51 46 39
51 47 17
51 48 19
51 49 2
51 50 39
52 0 41
52 1 12
52 2 35
52 3 10
52 4 42
52 5 40
52 6 48
52 7 4
52 8 40
52 9 11
52 10 35
52 11 44
52 12 29
52 13 21
52 14 16
52 15 42
52 16 40
52 17 41
52 18 13
52 19 30
52 20 47
52 21 24
52 22 4
52 23 12
52 24 49
52 25 3
52 26 48
52 27 47
52 28 7
52 29 9
52 30 15
52 31 41
52 32 13
52 33 29
52 34 12
52 35 36
52 36 31
52 37 13
52 38 29
52 39 5
52 40 35
52 41 26
52 42 27
52 43 14
52 44 11
52 45 30
52 46 36
52 47 24
52 48 39
52 49 17
52 50 2
52 51 36
53 0 43
53 1 47
53 2 43
53 3 10
53 4 33
53 5 4
53 6 47
53 7 3
53 8 11
53 9 20
53 10 39
53 11 21
53 12 11
53 13 38
53 14 17
53 15 5
53 16 37
53 17 15
53 18 35
53 19 23
53 20 17
53 21 14
53 22 31
53 23 21
53 24 39
53 25 33
53 26 14
53 27 14
53 28 46
53 29 11
53 30 30
53 31 7
53 32 7
53 33 9
53 34 6
53 35 47
53 36 3
53 37 18
53 38 5
53 39 29
53 40 16
53 41 33
53 42 16
53 43 19
53 44 40
53 45 1
53 46 3
53 47 43
53 48 41
53 49 5
53 50 36
53 51 6
53 52 21
54 0 1
54 1 26
54 2 20
54 3 30
54 4 5
54 5 5
54 6 20
54 7 3
54 8 36
54 9 39
54 10 6
54 11 39
54 12 48
54 13 4
54 14 8
54 15 40
54 16 22
54 17 25
54 18 48
54 19 33
54 20 17
54 21 47
54 22 23
54 23 23
54 24 48
54 25 5
54 26 41
54 27 36
54 28 5
54 29 19
54 30 35
54 31 17
54 32 33
54 33 49
54 34 36
54 35 5
54 36 8
54 37 36
54 38 19
54 39 47
54 40 19
54 41 11
54 42 33
54 43 45
54 44 20
54 45 24
54 46 32
54 47 43
54 48 6
54 49 35
54 50 27
54 51 15
54 52 25
54 53 16
55 0 13
55 1 12
55 2 31
55 3 7
55 4 41
55 5 6
55 6 46
55 7 3
55 8 21
55 9 24
55 10 21
55 11 23
55 12 13
55 13 15
55 14 36
55 15 26
55 16 7
55 17 41
55 18 2
55 19 39
55 20 12
55 21 2
55 22 31
55 23 2
55 24 13
55 25 46
55 26 24
55 27 5
55 28 19
55 29 27
55 30 43
55 31 4
55 32 7
55 33 13
55 34 7
55 35 18
55 36 36
55 37 36
55 38 15
55 39 16
55 40 48
55 41 32
55 42 36
55 43 19
55 44 2
55 45 10
55 46 15
55 47 2
55 48 35
55 49 30
55 50 34
55 51 2
55 52 38
55 53 24
55 54 43
56 0 37
56 1 38
56 2 39
56 3 37
56 4 17
56 5 11
56 6 22
56 7 30
56 8 15
56 9 8
56 10 9
56 11 40
56 12 39
56 13 13
56 14 41
56 15 44
56 16 13
56 17 23
56 18 26
56 19 4
56 20 34
56 21 12
56 22 10
56 23 38
56 24 24
56 25 17
56 26 23
56 27 22
56 28 28
56 29 29
56 30 41
56 31 13
56 32 18
56 33 40
56 34 38
56 35 11
56 36 34
56 37 22
56 38 4
56 39 19
56 40 47
56 41 43
56 42 23
56 43 1
56 44 34
56 45 1
56 46 32
56 47 15
56 48 42
56 49 12
56 50 48
56 51 1
56 52 7
56 53 6
56 54 23
56 55 22
57 0 6
57 1 12
57 2 5
57 3 19
57 4 22
57 5 12
57 6 16
57 7 42
57 8 36
57 9 37
57 10 10
57 11 6
57 12 27
57 13 41
57 14 3
57 15 7
57 16 7
57 17 21
57 18 47
57 19 1
57 20 49
57 21 13
57 22 38
57 23 45
57 24 22
57 25 46
57 26 27
57 27 47
57 28 38
57 29 39
57 30 19
57 31 46
57 32 31
57 33 29
57 34 14
57 35 23
57 36 27
57 37 22
57 38 9
57 39 18
57 40 15
57 41 30
57 42 34
57 43 29
57 44 35
57 45 32
57 46 43
57 47 2
57 48 35
57 49 11
57 50 9
57 51 47
57 52 35
57 53 44
57 54 25
57 55 43
57 56 8
58 0 12
58 1 41
58 2 10
58 3 16
58 4 16
58 5 45
58 6 48
58 7 25
58 8 17
58 9 6
58 10 23
58 11 6
58 12 1
58 13 9
58 14 12
58 15 21
58 16 1
58 17 33
58 18 25
58 19 44
58 20 20
58 21 18
58 22 22
58 23 26
58 24 2
58 25 35
58 26 36
58 27 17
58 28 18
58 29 16
58 30 43
58 31 10
58 32 43
58 33 43
58 34 35
58 35 28
58 36 22
58 37 4
58 38 23
58 39 28
58 40 13
58 41 29
58 42 42
58 43 1
58 44 36
58 45 44
58 46 24
58 47 40
58 48 49
58 49 32
58 50 23
58 51 4
58 52 41
58 53 1
58 54 36
58 55 42
58 56 42
58 57 35
59 0 43
59 1 12
59 2 26
59 3 14
59 4 9
59 5 20
59 6 23
59 7 30
59 8 8
59 9 39
59 10 30
59 11 12
59 12 13
59 13 13
59 14 37
59 15 40
59 16 37
59 17 9
59 18 15
59 19 8
59 20 28
59 21 48
59 22 2
59 23 40
59 24 30
59 25 46
59 26 39
59 27 24
59 28 11
59 29 45
59 30 33
59 31 10
59 32 25
59 33 3
59 34 30
59 35 20
59 36 22
59 37 27
59 38 24
59 39 10
59 40 35
59 41 8
59 42 40
59 43 33
59 44 5
59 45 4
59 46 37
59 47 31
59 48 37
59 49 6
59 50 7
59 51 25
59 52 18
59 53 28
59 54 42
59 55 11
59 56 31
59 57 12
59 58 9
60 0 46
60 1 4
60 2 7
60 3 29
60 4 30
60 5 11
60 6 8
60 7 2
60 8 3
60 9 35
60 10 36
60 11 8
60 12 27
60 13 49
60 14 7
60 15 25
60 16 39
60 17 30
60 18 49
60 19 32
60 20 41
60 21 43
60 22 6
60 23 23
60 24 28
60 25 48
60 26 39
60 27 17
60 28 18
60 29 28
60 30 13
60 31 37
60 32 24
60 33 15
60 34 32
60 35 29
60 36 49
60 37 47
60 38 49
60 39 23
60 40 22
60 41 10
60 42 44
60 43 17
60 44 28
60 45 48
60 46 45
60 47 28
60 48 35
60 49 3
60 50 45
60 51 11
60 52 33
60 53 25
60 54 44
60 55 2
60 56 20
60 57 38
60 58 44
60 59 26
61 0 25
61 1 40
61 2 7
61 3 8
61 4 26
61 5 23
61 6 32
61 7 23
61 8 31
61 9 48
61 10 26
61 11 26
61 12 45
61 13 17
61 14 7
61 15 20
61 16 36
61 17 44
61 18 36
61 19 7
61 20 27
61 21 19
61 22 47
61 23 27
61 24 13
61 25 12
61 26 39
61 27 7
61 28 2
61 29 9
61 30 22
61 31 21
61 32 7
61 33 46
61 34 20
61 35 38
61 36 15
61 37 39
61 38 41
61 39 36
61 40 16
61 41 35
61 42 32
61 43 43
61 44 21
61 45 29
61 46 8
61 47 11
61 48 18
61 49 9
61 50 20
61 51 26
61 52 45
61 53 1
61 54 48
61 55 42
61 56 46
61 57 41
61 58 15
61 59 24
61 60 36
62 0 33
62 1 41
62 2 46
62 3 16
62 4 32
62 5 12
62 6 31
62 7 4
62 8 48
62 9 40
62 10 27
62 11 39
62 12 35
62 13 26
62 14 49
62 15 48
62 16 17
62 17 32
62 18 48
62 19 5
62 20 15
62 21 32
62 22 9
62 23 10
62 24 43
62 25 44
62 26 22
62 27 34
62 28 4
62 29 21
62 30 6
62 31 24
62 32 28
62 33 32
62 34 40
62 35 5
62 36 34
62 37 48
62 38 14
62 39 39
62 40 4
62 41 22
62 42 32
62 43 8
62 44 24
62 45 6
62 46 11
62 47 44
62 48 44
62 49 35
62 50 9
62 51 15
62 52 36
62 53 26
62 54 26
62 55 7
62 56 10
62 57 9
62 58 31
62 59 29
62 60 36
62 61 6
63 0 15
63 1 20
63 2 4
63 3 5
63 4 25
63 5 47
63 6 36
63 7 23
63 8 37
63 9 14
63 10 23
63 11 17
63 12 8
63 13 15
63 14 26
63 15 24
63 16 23
63 17 19
63 18 14
63 19 10
63 20 24
63 21 21
63 22 39
63 23 39
63 24 45
63 25 4
63 26 21
63 27 8
63 28 32
63 29 8
63 30 21
63 31 31
63 32 21
63 33 6
63 34 5
63 35 19
63 36 4
63 37 11
63 38 13
63 39 26
63 40 21
63 41 37
63 42 36
63 43 12
63 44 29
63 45 11
63 46 3
63 47 9
63 48 17
63 49 43
63 50 13
63 51 13
63 52 29
63 53 23
63 54 32
63 55 18
63 56 26
63 57 22
63 58 12
63 59 25
63 60 24
63 61 39
63 62 25
64 0 2
64 1 47
64 2 8
64 3 9
64 4 7
64 5 7
64 6 21
64 7 27
64 8 15
64 9 49
64 10 11
64 11 26
64 12 16
64 13 35
64 14 28
64 15 3
64 16 39
64 17 44
64 18 18
64 19 7
64 20 32
64 21 12
64 22 17
64 23 6
64 24 36
64 25 11
64 26 8
64 27 17
64 28 32
64 29 44
64 30 10
64 31 4
64 32 22
64 33 14
64 34 21
64 35 19
64 36 39
64 37 38
64 38 33
64 39 24
64 40 33
64 41 15
64 42 42
64 43 28
64 44 38
64 45 21
64 46 46
64 47 9
64 48 10
64 49 28
64 50 47
64 51 35
64 52 5
64 53 3
64 54 15
64 55 33
64 56 15
64 57 27
64 58 1
64 59 18
64 60 3
64 61 10
64 62 35
64 63 37
65 0 30
65 1 32
65 2 25
65 3 11
65 4 3
65 5 17
65 6 11
65 7 27
65 8 34
65 9 12
65 10 22
65 11 23
65 12 4
65 13 36
65 14 15
65 15 27
65 16 2
65 17 8
65 18 6
65 19 11
65 20 40
65 21 20
65 22 17
65 23 12
65 24 42
65 25 26
65 26 6
65 27 43
65 28 41
65 29 16
65 30 40
65 31 33
65 32 11
65 33 5
65 34 8
65 35 29
65 36 11
65 37 25
65 38 33
65 39 31
65 40 48
65 41 36
65 42 35
65 43 33
65 44 23
65 45 31
65 46 22
65 47 37
65 48 8
65 49 32
65 50 13
65 51 8
65 52 42
65 53 22
65 54 29
65 55 10
65 56 47
65 57 34
65 58 11
65 59 10
65 60 47
65 61 25
65 62 22
65 63 18
65 64 15
66 0 15
66 1 35
66 2 29
66 3 32
66 4 3
66 5 25
66 6 3
66 7 6
66 8 30
66 9 42
66 10 18
66 11 15
66 12 48
66 13 17
66 14 36
66 15 46
66 16 8
66 17 47
66 18 13
66 19 24
66 20 42
66 21 36
66 22 13
66 23 15
66 24 43
66 25 11
66 26 16
66 27 38
66 28 22
66 29 23
66 30 32
66 31 35
66 32 27
66 33 20
66 34 27
66 35 8
66 36 44
66 37 25
66 38 19
66 39 4
66 40 22
66 41 40
66 42 17
66 43 25
66 44 20
66 45 30
66 46 34
66 47 35
66 48 40
66 49 23
66 50 17
66 51 31
66 52 45
66 53 21
66 54 17
66 55 11
66 56 9
66 57 27
66 58 44
66 59 19
66 60 49
66 61 3
66 62 28
66 63 22
66 64 27
66 65 43
